\ LP format - for model browsing. Use MPS format to capture full model detail.
Minimize
  44 RUp(g1,s1,t1) - 38 RDn(g1,s1,t1) + 5000 Lshed(s1,t1) + 44 RUp(g1,s1,t2)
   - 38 RDn(g1,s1,t2) + 5000 Lshed(s1,t2) + 44 RUp(g1,s1,t3)
   - 38 RDn(g1,s1,t3) + 5000 Lshed(s1,t3) + 44 RUp(g1,s1,t4)
   - 38 RDn(g1,s1,t4) + 5000 Lshed(s1,t4) + 44 RUp(g1,s1,t5)
   - 38 RDn(g1,s1,t5) + 5000 Lshed(s1,t5) + 44 RUp(g1,s1,t6)
   - 38 RDn(g1,s1,t6) + 5000 Lshed(s1,t6) + 44 RUp(g1,s1,t7)
   - 38 RDn(g1,s1,t7) + 5000 Lshed(s1,t7) + 44 RUp(g1,s1,t8)
   - 38 RDn(g1,s1,t8) + 5000 Lshed(s1,t8) + 44 RUp(g1,s1,t9)
   - 38 RDn(g1,s1,t9) + 5000 Lshed(s1,t9) + 44 RUp(g1,s1,t10)
   - 38 RDn(g1,s1,t10) + 5000 Lshed(s1,t10) + 44 RUp(g1,s1,t11)
   - 38 RDn(g1,s1,t11) + 5000 Lshed(s1,t11) + 44 RUp(g1,s1,t12)
   - 38 RDn(g1,s1,t12) + 5000 Lshed(s1,t12) + 44 RUp(g1,s1,t13)
   - 38 RDn(g1,s1,t13) + 5000 Lshed(s1,t13) + 44 RUp(g1,s1,t14)
   - 38 RDn(g1,s1,t14) + 5000 Lshed(s1,t14) + 44 RUp(g1,s1,t15)
   - 38 RDn(g1,s1,t15) + 5000 Lshed(s1,t15) + 44 RUp(g1,s1,t16)
   - 38 RDn(g1,s1,t16) + 5000 Lshed(s1,t16) + 44 RUp(g1,s1,t17)
   - 38 RDn(g1,s1,t17) + 5000 Lshed(s1,t17) + 44 RUp(g1,s1,t18)
   - 38 RDn(g1,s1,t18) + 5000 Lshed(s1,t18) + 44 RUp(g1,s1,t19)
   - 38 RDn(g1,s1,t19) + 5000 Lshed(s1,t19) + 44 RUp(g1,s1,t20)
   - 38 RDn(g1,s1,t20) + 5000 Lshed(s1,t20) + 44 RUp(g1,s1,t21)
   - 38 RDn(g1,s1,t21) + 5000 Lshed(s1,t21) + 44 RUp(g1,s1,t22)
   - 38 RDn(g1,s1,t22) + 5000 Lshed(s1,t22) + 44 RUp(g1,s1,t23)
   - 38 RDn(g1,s1,t23) + 5000 Lshed(s1,t23) + 44 RUp(g1,s1,t24)
   - 38 RDn(g1,s1,t24) + 5000 Lshed(s1,t24) + 44 RUp(g1,s2,t1)
   - 38 RDn(g1,s2,t1) + 5000 Lshed(s2,t1) + 44 RUp(g1,s2,t2)
   - 38 RDn(g1,s2,t2) + 5000 Lshed(s2,t2) + 44 RUp(g1,s2,t3)
   - 38 RDn(g1,s2,t3) + 5000 Lshed(s2,t3) + 44 RUp(g1,s2,t4)
   - 38 RDn(g1,s2,t4) + 5000 Lshed(s2,t4) + 44 RUp(g1,s2,t5)
   - 38 RDn(g1,s2,t5) + 5000 Lshed(s2,t5) + 44 RUp(g1,s2,t6)
   - 38 RDn(g1,s2,t6) + 5000 Lshed(s2,t6) + 44 RUp(g1,s2,t7)
   - 38 RDn(g1,s2,t7) + 5000 Lshed(s2,t7) + 44 RUp(g1,s2,t8)
   - 38 RDn(g1,s2,t8) + 5000 Lshed(s2,t8) + 44 RUp(g1,s2,t9)
   - 38 RDn(g1,s2,t9) + 5000 Lshed(s2,t9) + 44 RUp(g1,s2,t10)
   - 38 RDn(g1,s2,t10) + 5000 Lshed(s2,t10) + 44 RUp(g1,s2,t11)
   - 38 RDn(g1,s2,t11) + 5000 Lshed(s2,t11) + 44 RUp(g1,s2,t12)
   - 38 RDn(g1,s2,t12) + 5000 Lshed(s2,t12) + 44 RUp(g1,s2,t13)
   - 38 RDn(g1,s2,t13) + 5000 Lshed(s2,t13) + 44 RUp(g1,s2,t14)
   - 38 RDn(g1,s2,t14) + 5000 Lshed(s2,t14) + 44 RUp(g1,s2,t15)
   - 38 RDn(g1,s2,t15) + 5000 Lshed(s2,t15) + 44 RUp(g1,s2,t16)
   - 38 RDn(g1,s2,t16) + 5000 Lshed(s2,t16) + 44 RUp(g1,s2,t17)
   - 38 RDn(g1,s2,t17) + 5000 Lshed(s2,t17) + 44 RUp(g1,s2,t18)
   - 38 RDn(g1,s2,t18) + 5000 Lshed(s2,t18) + 44 RUp(g1,s2,t19)
   - 38 RDn(g1,s2,t19) + 5000 Lshed(s2,t19) + 44 RUp(g1,s2,t20)
   - 38 RDn(g1,s2,t20) + 5000 Lshed(s2,t20) + 44 RUp(g1,s2,t21)
   - 38 RDn(g1,s2,t21) + 5000 Lshed(s2,t21) + 44 RUp(g1,s2,t22)
   - 38 RDn(g1,s2,t22) + 5000 Lshed(s2,t22) + 44 RUp(g1,s2,t23)
   - 38 RDn(g1,s2,t23) + 5000 Lshed(s2,t23) + 44 RUp(g1,s2,t24)
   - 38 RDn(g1,s2,t24) + 5000 Lshed(s2,t24)
Subject To
 PowerBalance_RT(s1,t1): RUp(g1,s1,t1) - RDn(g1,s1,t1) + RUpSC(g1,s1,t1)
   - RDnSC(g1,s1,t1) - Wspill(w1,s1,t1) + Lshed(s1,t1)
   = -9.680761979999994
 PowerBalance_RT(s1,t2): RUp(g1,s1,t2) - RDn(g1,s1,t2) + RUpSC(g1,s1,t2)
   - RDnSC(g1,s1,t2) - Wspill(w1,s1,t2) + Lshed(s1,t2)
   = -4.952112629999999
 PowerBalance_RT(s1,t3): RUp(g1,s1,t3) - RDn(g1,s1,t3) + RUpSC(g1,s1,t3)
   - RDnSC(g1,s1,t3) - Wspill(w1,s1,t3) + Lshed(s1,t3)
   = -5.174671079999996
 PowerBalance_RT(s1,t4): RUp(g1,s1,t4) - RDn(g1,s1,t4) + RUpSC(g1,s1,t4)
   - RDnSC(g1,s1,t4) - Wspill(w1,s1,t4) + Lshed(s1,t4)
   = -9.887749589999993
 PowerBalance_RT(s1,t5): RUp(g1,s1,t5) - RDn(g1,s1,t5) + RUpSC(g1,s1,t5)
   - RDnSC(g1,s1,t5) - Wspill(w1,s1,t5) + Lshed(s1,t5)
   = -5.018777429999997
 PowerBalance_RT(s1,t6): RUp(g1,s1,t6) - RDn(g1,s1,t6) + RUpSC(g1,s1,t6)
   - RDnSC(g1,s1,t6) - Wspill(w1,s1,t6) + Lshed(s1,t6)
   = -4.542229754999996
 PowerBalance_RT(s1,t7): RUp(g1,s1,t7) - RDn(g1,s1,t7) + RUpSC(g1,s1,t7)
   - RDnSC(g1,s1,t7) - Wspill(w1,s1,t7) + Lshed(s1,t7)
   = -4.148664584999995
 PowerBalance_RT(s1,t8): RUp(g1,s1,t8) - RDn(g1,s1,t8) + RUpSC(g1,s1,t8)
   - RDnSC(g1,s1,t8) - Wspill(w1,s1,t8) + Lshed(s1,t8)
   = -3.336702359999997
 PowerBalance_RT(s1,t9): RUp(g1,s1,t9) - RDn(g1,s1,t9) + RUpSC(g1,s1,t9)
   - RDnSC(g1,s1,t9) - Wspill(w1,s1,t9) + Lshed(s1,t9)
   = -2.619095909999999
 PowerBalance_RT(s1,t10): RUp(g1,s1,t10) - RDn(g1,s1,t10)
   + RUpSC(g1,s1,t10) - RDnSC(g1,s1,t10) - Wspill(w1,s1,t10)
   + Lshed(s1,t10) = -1.937298075
 PowerBalance_RT(s1,t11): RUp(g1,s1,t11) - RDn(g1,s1,t11)
   + RUpSC(g1,s1,t11) - RDnSC(g1,s1,t11) - Wspill(w1,s1,t11)
   + Lshed(s1,t11) = -1.491039179999999
 PowerBalance_RT(s1,t12): RUp(g1,s1,t12) - RDn(g1,s1,t12)
   + RUpSC(g1,s1,t12) - RDnSC(g1,s1,t12) - Wspill(w1,s1,t12)
   + Lshed(s1,t12) = -2.665096739999993
 PowerBalance_RT(s1,t13): RUp(g1,s1,t13) - RDn(g1,s1,t13)
   + RUpSC(g1,s1,t13) - RDnSC(g1,s1,t13) - Wspill(w1,s1,t13)
   + Lshed(s1,t13) = -1.365467579999999
 PowerBalance_RT(s1,t14): RUp(g1,s1,t14) - RDn(g1,s1,t14)
   + RUpSC(g1,s1,t14) - RDnSC(g1,s1,t14) - Wspill(w1,s1,t14)
   + Lshed(s1,t14) = -1.751168954999999
 PowerBalance_RT(s1,t15): RUp(g1,s1,t15) - RDn(g1,s1,t15)
   + RUpSC(g1,s1,t15) - RDnSC(g1,s1,t15) - Wspill(w1,s1,t15)
   + Lshed(s1,t15) = -1.990514025
 PowerBalance_RT(s1,t16): RUp(g1,s1,t16) - RDn(g1,s1,t16)
   + RUpSC(g1,s1,t16) - RDnSC(g1,s1,t16) - Wspill(w1,s1,t16)
   + Lshed(s1,t16) = -1.929347819999999
 PowerBalance_RT(s1,t17): RUp(g1,s1,t17) - RDn(g1,s1,t17)
   + RUpSC(g1,s1,t17) - RDnSC(g1,s1,t17) - Wspill(w1,s1,t17)
   + Lshed(s1,t17) = -3.236329139999993
 PowerBalance_RT(s1,t18): RUp(g1,s1,t18) - RDn(g1,s1,t18)
   + RUpSC(g1,s1,t18) - RDnSC(g1,s1,t18) - Wspill(w1,s1,t18)
   + Lshed(s1,t18) = -3.035806169999993
 PowerBalance_RT(s1,t19): RUp(g1,s1,t19) - RDn(g1,s1,t19)
   + RUpSC(g1,s1,t19) - RDnSC(g1,s1,t19) - Wspill(w1,s1,t19)
   + Lshed(s1,t19) = -1.444128254999998
 PowerBalance_RT(s1,t20): RUp(g1,s1,t20) - RDn(g1,s1,t20)
   + RUpSC(g1,s1,t20) - RDnSC(g1,s1,t20) - Wspill(w1,s1,t20)
   + Lshed(s1,t20) = -2.717600999999992
 PowerBalance_RT(s1,t21): RUp(g1,s1,t21) - RDn(g1,s1,t21)
   + RUpSC(g1,s1,t21) - RDnSC(g1,s1,t21) - Wspill(w1,s1,t21)
   + Lshed(s1,t21) = -1.212598889999999
 PowerBalance_RT(s1,t22): RUp(g1,s1,t22) - RDn(g1,s1,t22)
   + RUpSC(g1,s1,t22) - RDnSC(g1,s1,t22) - Wspill(w1,s1,t22)
   + Lshed(s1,t22) = -2.247163949999994
 PowerBalance_RT(s1,t23): RUp(g1,s1,t23) - RDn(g1,s1,t23)
   + RUpSC(g1,s1,t23) - RDnSC(g1,s1,t23) - Wspill(w1,s1,t23)
   + Lshed(s1,t23) = -1.941733919999995
 PowerBalance_RT(s1,t24): RUp(g1,s1,t24) - RDn(g1,s1,t24)
   + RUpSC(g1,s1,t24) - RDnSC(g1,s1,t24) - Wspill(w1,s1,t24)
   + Lshed(s1,t24) = -0.6269377949999992
 PowerBalance_RT(s2,t1): RUp(g1,s2,t1) - RDn(g1,s2,t1) + RUpSC(g1,s2,t1)
   - RDnSC(g1,s2,t1) - Wspill(w1,s2,t1) + Lshed(s2,t1) = 5.32907e-15
 PowerBalance_RT(s2,t2): RUp(g1,s2,t2) - RDn(g1,s2,t2) + RUpSC(g1,s2,t2)
   - RDnSC(g1,s2,t2) - Wspill(w1,s2,t2) + Lshed(s2,t2) = 4.952112630000002
 PowerBalance_RT(s2,t3): RUp(g1,s2,t3) - RDn(g1,s2,t3) + RUpSC(g1,s2,t3)
   - RDnSC(g1,s2,t3) - Wspill(w1,s2,t3) + Lshed(s2,t3) = 5.174671080000005
 PowerBalance_RT(s2,t4): RUp(g1,s2,t4) - RDn(g1,s2,t4) + RUpSC(g1,s2,t4)
   - RDnSC(g1,s2,t4) - Wspill(w1,s2,t4) + Lshed(s2,t4) = 8.88178e-15
 PowerBalance_RT(s2,t5): RUp(g1,s2,t5) - RDn(g1,s2,t5) + RUpSC(g1,s2,t5)
   - RDnSC(g1,s2,t5) - Wspill(w1,s2,t5) + Lshed(s2,t5) = 5.018777430000002
 PowerBalance_RT(s2,t6): RUp(g1,s2,t6) - RDn(g1,s2,t6) + RUpSC(g1,s2,t6)
   - RDnSC(g1,s2,t6) - Wspill(w1,s2,t6) + Lshed(s2,t6) = 4.542229755000005
 PowerBalance_RT(s2,t7): RUp(g1,s2,t7) - RDn(g1,s2,t7) + RUpSC(g1,s2,t7)
   - RDnSC(g1,s2,t7) - Wspill(w1,s2,t7) + Lshed(s2,t7) = 4.148664585000004
 PowerBalance_RT(s2,t8): RUp(g1,s2,t8) - RDn(g1,s2,t8) + RUpSC(g1,s2,t8)
   - RDnSC(g1,s2,t8) - Wspill(w1,s2,t8) + Lshed(s2,t8) = 3.336702360000003
 PowerBalance_RT(s2,t9): RUp(g1,s2,t9) - RDn(g1,s2,t9) + RUpSC(g1,s2,t9)
   - RDnSC(g1,s2,t9) - Wspill(w1,s2,t9) + Lshed(s2,t9) = 2.619095910000001
 PowerBalance_RT(s2,t10): RUp(g1,s2,t10) - RDn(g1,s2,t10)
   + RUpSC(g1,s2,t10) - RDnSC(g1,s2,t10) - Wspill(w1,s2,t10)
   + Lshed(s2,t10) = 1.937298075000001
 PowerBalance_RT(s2,t11): RUp(g1,s2,t11) - RDn(g1,s2,t11)
   + RUpSC(g1,s2,t11) - RDnSC(g1,s2,t11) - Wspill(w1,s2,t11)
   + Lshed(s2,t11) = 1.491039180000001
 PowerBalance_RT(s2,t12): RUp(g1,s2,t12) - RDn(g1,s2,t12)
   + RUpSC(g1,s2,t12) - RDnSC(g1,s2,t12) - Wspill(w1,s2,t12)
   + Lshed(s2,t12) = 6.66134e-15
 PowerBalance_RT(s2,t13): RUp(g1,s2,t13) - RDn(g1,s2,t13)
   + RUpSC(g1,s2,t13) - RDnSC(g1,s2,t13) - Wspill(w1,s2,t13)
   + Lshed(s2,t13) = 1.365467580000001
 PowerBalance_RT(s2,t14): RUp(g1,s2,t14) - RDn(g1,s2,t14)
   + RUpSC(g1,s2,t14) - RDnSC(g1,s2,t14) - Wspill(w1,s2,t14)
   + Lshed(s2,t14) = 1.751168955000001
 PowerBalance_RT(s2,t15): RUp(g1,s2,t15) - RDn(g1,s2,t15)
   + RUpSC(g1,s2,t15) - RDnSC(g1,s2,t15) - Wspill(w1,s2,t15)
   + Lshed(s2,t15) = 1.990514025
 PowerBalance_RT(s2,t16): RUp(g1,s2,t16) - RDn(g1,s2,t16)
   + RUpSC(g1,s2,t16) - RDnSC(g1,s2,t16) - Wspill(w1,s2,t16)
   + Lshed(s2,t16) = 1.929347820000001
 PowerBalance_RT(s2,t17): RUp(g1,s2,t17) - RDn(g1,s2,t17)
   + RUpSC(g1,s2,t17) - RDnSC(g1,s2,t17) - Wspill(w1,s2,t17)
   + Lshed(s2,t17) = 6.66134e-15
 PowerBalance_RT(s2,t18): RUp(g1,s2,t18) - RDn(g1,s2,t18)
   + RUpSC(g1,s2,t18) - RDnSC(g1,s2,t18) - Wspill(w1,s2,t18)
   + Lshed(s2,t18) = 6.66134e-15
 PowerBalance_RT(s2,t19): RUp(g1,s2,t19) - RDn(g1,s2,t19)
   + RUpSC(g1,s2,t19) - RDnSC(g1,s2,t19) - Wspill(w1,s2,t19)
   + Lshed(s2,t19) = 1.444128255000002
 PowerBalance_RT(s2,t20): RUp(g1,s2,t20) - RDn(g1,s2,t20)
   + RUpSC(g1,s2,t20) - RDnSC(g1,s2,t20) - Wspill(w1,s2,t20)
   + Lshed(s2,t20) = 7.54952e-15
 PowerBalance_RT(s2,t21): RUp(g1,s2,t21) - RDn(g1,s2,t21)
   + RUpSC(g1,s2,t21) - RDnSC(g1,s2,t21) - Wspill(w1,s2,t21)
   + Lshed(s2,t21) = 1.212598890000001
 PowerBalance_RT(s2,t22): RUp(g1,s2,t22) - RDn(g1,s2,t22)
   + RUpSC(g1,s2,t22) - RDnSC(g1,s2,t22) - Wspill(w1,s2,t22)
   + Lshed(s2,t22) = 6.21725e-15
 PowerBalance_RT(s2,t23): RUp(g1,s2,t23) - RDn(g1,s2,t23)
   + RUpSC(g1,s2,t23) - RDnSC(g1,s2,t23) - Wspill(w1,s2,t23)
   + Lshed(s2,t23) = 5.10703e-15
 PowerBalance_RT(s2,t24): RUp(g1,s2,t24) - RDn(g1,s2,t24)
   + RUpSC(g1,s2,t24) - RDnSC(g1,s2,t24) - Wspill(w1,s2,t24)
   + Lshed(s2,t24) = 0.6269377950000006
 RegUp_max_RT(g1,s1,t1): RUp(g1,s1,t1) <= 111.68076201
 RegDown_max_RT(g1,s1,t1): RDn(g1,s1,t1) <= 40.31923799
 RegUp_max_RT(g1,s1,t2): RUp(g1,s1,t2) <= 110.61013003
 RegDown_max_RT(g1,s1,t2): RDn(g1,s1,t2) <= 36.43775734000001
 RegUp_max_RT(g1,s1,t3): RUp(g1,s1,t3) <= 109.84934219
 RegDown_max_RT(g1,s1,t3): RDn(g1,s1,t3) <= 36.97598673
 RegUp_max_RT(g1,s1,t4): RUp(g1,s1,t4) <= 108.35221571
 RegDown_max_RT(g1,s1,t4): RDn(g1,s1,t4) <= 43.64778428999999
 RegUp_max_RT(g1,s1,t5): RUp(g1,s1,t5) <= 107.70742787
 RegDown_max_RT(g1,s1,t5): RDn(g1,s1,t5) <= 39.2737947
 RegUp_max_RT(g1,s1,t6): RUp(g1,s1,t6) <= 106.25483041
 RegDown_max_RT(g1,s1,t6): RDn(g1,s1,t6) <= 35.74516959
 RegUp_max_RT(g1,s1,t7): RUp(g1,s1,t7) <= 105.29732917
 RegDown_max_RT(g1,s1,t7): RDn(g1,s1,t7) <= 36.70267083
 RegUp_max_RT(g1,s1,t8): RUp(g1,s1,t8) <= 103.84377559
 RegDown_max_RT(g1,s1,t8): RDn(g1,s1,t8) <= 38.15622441
 RegUp_max_RT(g1,s1,t9): RUp(g1,s1,t9) <= 102.9080648
 RegDown_max_RT(g1,s1,t9): RDn(g1,s1,t9) <= 39.0919352
 RegUp_max_RT(g1,s1,t10): RUp(g1,s1,t10) <= 102.33906227
 RegDown_max_RT(g1,s1,t10): RDn(g1,s1,t10) <= 39.66093773
 RegUp_max_RT(g1,s1,t11): RUp(g1,s1,t11) <= 102.48207836
 RegDown_max_RT(g1,s1,t11): RDn(g1,s1,t11) <= 39.51792164
 RegUp_max_RT(g1,s1,t12): RUp(g1,s1,t12) <= 103.37100154
 RegDown_max_RT(g1,s1,t12): RDn(g1,s1,t12) <= 38.62899846
 RegUp_max_RT(g1,s1,t13): RUp(g1,s1,t13) <= 104.73093516
 RegDown_max_RT(g1,s1,t13): RDn(g1,s1,t13) <= 37.26906484
 RegUp_max_RT(g1,s1,t14): RUp(g1,s1,t14) <= 106.79643314
 RegDown_max_RT(g1,s1,t14): RDn(g1,s1,t14) <= 35.20356686
 RegUp_max_RT(g1,s1,t15): RUp(g1,s1,t15) <= 108.48102805
 RegDown_max_RT(g1,s1,t15): RDn(g1,s1,t15) <= 33.51897194999999
 RegUp_max_RT(g1,s1,t16): RUp(g1,s1,t16) <= 109.39422955
 RegDown_max_RT(g1,s1,t16): RDn(g1,s1,t16) <= 32.60577045000001
 RegUp_max_RT(g1,s1,t17): RUp(g1,s1,t17) <= 109.56645619
 RegDown_max_RT(g1,s1,t17): RDn(g1,s1,t17) <= 32.43354381
 RegUp_max_RT(g1,s1,t18): RUp(g1,s1,t18) <= 109.86543533
 RegDown_max_RT(g1,s1,t18): RDn(g1,s1,t18) <= 32.13456466999999
 RegUp_max_RT(g1,s1,t19): RUp(g1,s1,t19) <= 109.88825651
 RegDown_max_RT(g1,s1,t19): RDn(g1,s1,t19) <= 32.11174349
 RegUp_max_RT(g1,s1,t20): RUp(g1,s1,t20) <= 109.54723013
 RegDown_max_RT(g1,s1,t20): RDn(g1,s1,t20) <= 32.45276986999999
 RegUp_max_RT(g1,s1,t21): RUp(g1,s1,t21) <= 108.75532483
 RegDown_max_RT(g1,s1,t21): RDn(g1,s1,t21) <= 33.24467517
 RegUp_max_RT(g1,s1,t22): RUp(g1,s1,t22) <= 107.78269786
 RegDown_max_RT(g1,s1,t22): RDn(g1,s1,t22) <= 34.21730213999999
 RegUp_max_RT(g1,s1,t23): RUp(g1,s1,t23) <= 106.44173395
 RegDown_max_RT(g1,s1,t23): RDn(g1,s1,t23) <= 35.55826604999999
 RegUp_max_RT(g1,s1,t24): RUp(g1,s1,t24) <= 104.54797085
 RegDown_max_RT(g1,s1,t24): RDn(g1,s1,t24) <= 37.45202914999999
 RegUp_max_RT(g1,s2,t1): RUp(g1,s2,t1) <= 111.68076201
 RegDown_max_RT(g1,s2,t1): RDn(g1,s2,t1) <= 40.31923799
 RegUp_max_RT(g1,s2,t2): RUp(g1,s2,t2) <= 110.61013003
 RegDown_max_RT(g1,s2,t2): RDn(g1,s2,t2) <= 36.43775734000001
 RegUp_max_RT(g1,s2,t3): RUp(g1,s2,t3) <= 109.84934219
 RegDown_max_RT(g1,s2,t3): RDn(g1,s2,t3) <= 36.97598673
 RegUp_max_RT(g1,s2,t4): RUp(g1,s2,t4) <= 108.35221571
 RegDown_max_RT(g1,s2,t4): RDn(g1,s2,t4) <= 43.64778428999999
 RegUp_max_RT(g1,s2,t5): RUp(g1,s2,t5) <= 107.70742787
 RegDown_max_RT(g1,s2,t5): RDn(g1,s2,t5) <= 39.2737947
 RegUp_max_RT(g1,s2,t6): RUp(g1,s2,t6) <= 106.25483041
 RegDown_max_RT(g1,s2,t6): RDn(g1,s2,t6) <= 35.74516959
 RegUp_max_RT(g1,s2,t7): RUp(g1,s2,t7) <= 105.29732917
 RegDown_max_RT(g1,s2,t7): RDn(g1,s2,t7) <= 36.70267083
 RegUp_max_RT(g1,s2,t8): RUp(g1,s2,t8) <= 103.84377559
 RegDown_max_RT(g1,s2,t8): RDn(g1,s2,t8) <= 38.15622441
 RegUp_max_RT(g1,s2,t9): RUp(g1,s2,t9) <= 102.9080648
 RegDown_max_RT(g1,s2,t9): RDn(g1,s2,t9) <= 39.0919352
 RegUp_max_RT(g1,s2,t10): RUp(g1,s2,t10) <= 102.33906227
 RegDown_max_RT(g1,s2,t10): RDn(g1,s2,t10) <= 39.66093773
 RegUp_max_RT(g1,s2,t11): RUp(g1,s2,t11) <= 102.48207836
 RegDown_max_RT(g1,s2,t11): RDn(g1,s2,t11) <= 39.51792164
 RegUp_max_RT(g1,s2,t12): RUp(g1,s2,t12) <= 103.37100154
 RegDown_max_RT(g1,s2,t12): RDn(g1,s2,t12) <= 38.62899846
 RegUp_max_RT(g1,s2,t13): RUp(g1,s2,t13) <= 104.73093516
 RegDown_max_RT(g1,s2,t13): RDn(g1,s2,t13) <= 37.26906484
 RegUp_max_RT(g1,s2,t14): RUp(g1,s2,t14) <= 106.79643314
 RegDown_max_RT(g1,s2,t14): RDn(g1,s2,t14) <= 35.20356686
 RegUp_max_RT(g1,s2,t15): RUp(g1,s2,t15) <= 108.48102805
 RegDown_max_RT(g1,s2,t15): RDn(g1,s2,t15) <= 33.51897194999999
 RegUp_max_RT(g1,s2,t16): RUp(g1,s2,t16) <= 109.39422955
 RegDown_max_RT(g1,s2,t16): RDn(g1,s2,t16) <= 32.60577045000001
 RegUp_max_RT(g1,s2,t17): RUp(g1,s2,t17) <= 109.56645619
 RegDown_max_RT(g1,s2,t17): RDn(g1,s2,t17) <= 32.43354381
 RegUp_max_RT(g1,s2,t18): RUp(g1,s2,t18) <= 109.86543533
 RegDown_max_RT(g1,s2,t18): RDn(g1,s2,t18) <= 32.13456466999999
 RegUp_max_RT(g1,s2,t19): RUp(g1,s2,t19) <= 109.88825651
 RegDown_max_RT(g1,s2,t19): RDn(g1,s2,t19) <= 32.11174349
 RegUp_max_RT(g1,s2,t20): RUp(g1,s2,t20) <= 109.54723013
 RegDown_max_RT(g1,s2,t20): RDn(g1,s2,t20) <= 32.45276986999999
 RegUp_max_RT(g1,s2,t21): RUp(g1,s2,t21) <= 108.75532483
 RegDown_max_RT(g1,s2,t21): RDn(g1,s2,t21) <= 33.24467517
 RegUp_max_RT(g1,s2,t22): RUp(g1,s2,t22) <= 107.78269786
 RegDown_max_RT(g1,s2,t22): RDn(g1,s2,t22) <= 34.21730213999999
 RegUp_max_RT(g1,s2,t23): RUp(g1,s2,t23) <= 106.44173395
 RegDown_max_RT(g1,s2,t23): RDn(g1,s2,t23) <= 35.55826604999999
 RegUp_max_RT(g1,s2,t24): RUp(g1,s2,t24) <= 104.54797085
 RegDown_max_RT(g1,s2,t24): RDn(g1,s2,t24) <= 37.45202914999999
 RegUpSC_max_RT(g1,s1,t1): RUpSC(g1,s1,t1) <= 0
 RegDnSC_max_RT(g1,s1,t1): RDnSC(g1,s1,t1) <= 0
 RegUpSC_max_RT(g1,s1,t2): RUpSC(g1,s1,t2) <= 4.952112630000002
 RegDnSC_max_RT(g1,s1,t2): RDnSC(g1,s1,t2) <= 0
 RegUpSC_max_RT(g1,s1,t3): RUpSC(g1,s1,t3) <= 5.174671080000005
 RegDnSC_max_RT(g1,s1,t3): RDnSC(g1,s1,t3) <= 0
 RegUpSC_max_RT(g1,s1,t4): RUpSC(g1,s1,t4) <= 0
 RegDnSC_max_RT(g1,s1,t4): RDnSC(g1,s1,t4) <= 0
 RegUpSC_max_RT(g1,s1,t5): RUpSC(g1,s1,t5) <= 5.018777430000002
 RegDnSC_max_RT(g1,s1,t5): RDnSC(g1,s1,t5) <= 0
 RegUpSC_max_RT(g1,s1,t6): RUpSC(g1,s1,t6) <= 4.542229755000005
 RegDnSC_max_RT(g1,s1,t6): RDnSC(g1,s1,t6) <= 5.457770244999995
 RegUpSC_max_RT(g1,s1,t7): RUpSC(g1,s1,t7) <= 4.148664585000004
 RegDnSC_max_RT(g1,s1,t7): RDnSC(g1,s1,t7) <= 5.851335414999996
 RegUpSC_max_RT(g1,s1,t8): RUpSC(g1,s1,t8) <= 3.336702360000003
 RegDnSC_max_RT(g1,s1,t8): RDnSC(g1,s1,t8) <= 6.663297639999997
 RegUpSC_max_RT(g1,s1,t9): RUpSC(g1,s1,t9) <= 2.619095910000001
 RegDnSC_max_RT(g1,s1,t9): RDnSC(g1,s1,t9) <= 7.380904089999999
 RegUpSC_max_RT(g1,s1,t10): RUpSC(g1,s1,t10) <= 1.937298075000001
 RegDnSC_max_RT(g1,s1,t10): RDnSC(g1,s1,t10) <= 8.062701924999999
 RegUpSC_max_RT(g1,s1,t11): RUpSC(g1,s1,t11) <= 1.491039180000001
 RegDnSC_max_RT(g1,s1,t11): RDnSC(g1,s1,t11) <= 8.508960819999999
 RegUpSC_max_RT(g1,s1,t12): RUpSC(g1,s1,t12) <= 0
 RegDnSC_max_RT(g1,s1,t12): RDnSC(g1,s1,t12) <= 10
 RegUpSC_max_RT(g1,s1,t13): RUpSC(g1,s1,t13) <= 1.365467580000001
 RegDnSC_max_RT(g1,s1,t13): RDnSC(g1,s1,t13) <= 8.634532419999999
 RegUpSC_max_RT(g1,s1,t14): RUpSC(g1,s1,t14) <= 1.751168955000001
 RegDnSC_max_RT(g1,s1,t14): RDnSC(g1,s1,t14) <= 8.248831044999999
 RegUpSC_max_RT(g1,s1,t15): RUpSC(g1,s1,t15) <= 1.990514025
 RegDnSC_max_RT(g1,s1,t15): RDnSC(g1,s1,t15) <= 8.009485975000001
 RegUpSC_max_RT(g1,s1,t16): RUpSC(g1,s1,t16) <= 1.92934782
 RegDnSC_max_RT(g1,s1,t16): RDnSC(g1,s1,t16) <= 8.07065218
 RegUpSC_max_RT(g1,s1,t17): RUpSC(g1,s1,t17) <= 0
 RegDnSC_max_RT(g1,s1,t17): RDnSC(g1,s1,t17) <= 10
 RegUpSC_max_RT(g1,s1,t18): RUpSC(g1,s1,t18) <= 0
 RegDnSC_max_RT(g1,s1,t18): RDnSC(g1,s1,t18) <= 10
 RegUpSC_max_RT(g1,s1,t19): RUpSC(g1,s1,t19) <= 1.444128255000003
 RegDnSC_max_RT(g1,s1,t19): RDnSC(g1,s1,t19) <= 8.555871744999998
 RegUpSC_max_RT(g1,s1,t20): RUpSC(g1,s1,t20) <= 0
 RegDnSC_max_RT(g1,s1,t20): RDnSC(g1,s1,t20) <= 10
 RegUpSC_max_RT(g1,s1,t21): RUpSC(g1,s1,t21) <= 1.212598890000001
 RegDnSC_max_RT(g1,s1,t21): RDnSC(g1,s1,t21) <= 8.787401109999999
 RegUpSC_max_RT(g1,s1,t22): RUpSC(g1,s1,t22) <= 0
 RegDnSC_max_RT(g1,s1,t22): RDnSC(g1,s1,t22) <= 10
 RegUpSC_max_RT(g1,s1,t23): RUpSC(g1,s1,t23) <= 0
 RegDnSC_max_RT(g1,s1,t23): RDnSC(g1,s1,t23) <= 10
 RegUpSC_max_RT(g1,s1,t24): RUpSC(g1,s1,t24) <= 0.6269377949999999
 RegDnSC_max_RT(g1,s1,t24): RDnSC(g1,s1,t24) <= 9.373062205
 RegUpSC_max_RT(g1,s2,t1): RUpSC(g1,s2,t1) <= 0
 RegDnSC_max_RT(g1,s2,t1): RDnSC(g1,s2,t1) <= 0
 RegUpSC_max_RT(g1,s2,t2): RUpSC(g1,s2,t2) <= 4.952112630000002
 RegDnSC_max_RT(g1,s2,t2): RDnSC(g1,s2,t2) <= 0
 RegUpSC_max_RT(g1,s2,t3): RUpSC(g1,s2,t3) <= 5.174671080000005
 RegDnSC_max_RT(g1,s2,t3): RDnSC(g1,s2,t3) <= 0
 RegUpSC_max_RT(g1,s2,t4): RUpSC(g1,s2,t4) <= 0
 RegDnSC_max_RT(g1,s2,t4): RDnSC(g1,s2,t4) <= 0
 RegUpSC_max_RT(g1,s2,t5): RUpSC(g1,s2,t5) <= 5.018777430000002
 RegDnSC_max_RT(g1,s2,t5): RDnSC(g1,s2,t5) <= 0
 RegUpSC_max_RT(g1,s2,t6): RUpSC(g1,s2,t6) <= 4.542229755000005
 RegDnSC_max_RT(g1,s2,t6): RDnSC(g1,s2,t6) <= 5.457770244999995
 RegUpSC_max_RT(g1,s2,t7): RUpSC(g1,s2,t7) <= 4.148664585000004
 RegDnSC_max_RT(g1,s2,t7): RDnSC(g1,s2,t7) <= 5.851335414999996
 RegUpSC_max_RT(g1,s2,t8): RUpSC(g1,s2,t8) <= 3.336702360000003
 RegDnSC_max_RT(g1,s2,t8): RDnSC(g1,s2,t8) <= 6.663297639999997
 RegUpSC_max_RT(g1,s2,t9): RUpSC(g1,s2,t9) <= 2.619095910000001
 RegDnSC_max_RT(g1,s2,t9): RDnSC(g1,s2,t9) <= 7.380904089999999
 RegUpSC_max_RT(g1,s2,t10): RUpSC(g1,s2,t10) <= 1.937298075000001
 RegDnSC_max_RT(g1,s2,t10): RDnSC(g1,s2,t10) <= 8.062701924999999
 RegUpSC_max_RT(g1,s2,t11): RUpSC(g1,s2,t11) <= 1.491039180000001
 RegDnSC_max_RT(g1,s2,t11): RDnSC(g1,s2,t11) <= 8.508960819999999
 RegUpSC_max_RT(g1,s2,t12): RUpSC(g1,s2,t12) <= 0
 RegDnSC_max_RT(g1,s2,t12): RDnSC(g1,s2,t12) <= 10
 RegUpSC_max_RT(g1,s2,t13): RUpSC(g1,s2,t13) <= 1.365467580000001
 RegDnSC_max_RT(g1,s2,t13): RDnSC(g1,s2,t13) <= 8.634532419999999
 RegUpSC_max_RT(g1,s2,t14): RUpSC(g1,s2,t14) <= 1.751168955000001
 RegDnSC_max_RT(g1,s2,t14): RDnSC(g1,s2,t14) <= 8.248831044999999
 RegUpSC_max_RT(g1,s2,t15): RUpSC(g1,s2,t15) <= 1.990514025
 RegDnSC_max_RT(g1,s2,t15): RDnSC(g1,s2,t15) <= 8.009485975000001
 RegUpSC_max_RT(g1,s2,t16): RUpSC(g1,s2,t16) <= 1.92934782
 RegDnSC_max_RT(g1,s2,t16): RDnSC(g1,s2,t16) <= 8.07065218
 RegUpSC_max_RT(g1,s2,t17): RUpSC(g1,s2,t17) <= 0
 RegDnSC_max_RT(g1,s2,t17): RDnSC(g1,s2,t17) <= 10
 RegUpSC_max_RT(g1,s2,t18): RUpSC(g1,s2,t18) <= 0
 RegDnSC_max_RT(g1,s2,t18): RDnSC(g1,s2,t18) <= 10
 RegUpSC_max_RT(g1,s2,t19): RUpSC(g1,s2,t19) <= 1.444128255000003
 RegDnSC_max_RT(g1,s2,t19): RDnSC(g1,s2,t19) <= 8.555871744999998
 RegUpSC_max_RT(g1,s2,t20): RUpSC(g1,s2,t20) <= 0
 RegDnSC_max_RT(g1,s2,t20): RDnSC(g1,s2,t20) <= 10
 RegUpSC_max_RT(g1,s2,t21): RUpSC(g1,s2,t21) <= 1.212598890000001
 RegDnSC_max_RT(g1,s2,t21): RDnSC(g1,s2,t21) <= 8.787401109999999
 RegUpSC_max_RT(g1,s2,t22): RUpSC(g1,s2,t22) <= 0
 RegDnSC_max_RT(g1,s2,t22): RDnSC(g1,s2,t22) <= 10
 RegUpSC_max_RT(g1,s2,t23): RUpSC(g1,s2,t23) <= 0
 RegDnSC_max_RT(g1,s2,t23): RDnSC(g1,s2,t23) <= 10
 RegUpSC_max_RT(g1,s2,t24): RUpSC(g1,s2,t24) <= 0.6269377949999999
 RegDnSC_max_RT(g1,s2,t24): RDnSC(g1,s2,t24) <= 9.373062205
 Max_load_shed_RT(s1,t1): Lshed(s1,t1) <= 50
 Max_load_shed_RT(s1,t2): Lshed(s1,t2) <= 51.29409523
 Max_load_shed_RT(s1,t3): Lshed(s1,t3) <= 52.5
 Max_load_shed_RT(s1,t4): Lshed(s1,t4) <= 53.53553391
 Max_load_shed_RT(s1,t5): Lshed(s1,t5) <= 54.33012702
 Max_load_shed_RT(s1,t6): Lshed(s1,t6) <= 54.82962913
 Max_load_shed_RT(s1,t7): Lshed(s1,t7) <= 55
 Max_load_shed_RT(s1,t8): Lshed(s1,t8) <= 54.82962913
 Max_load_shed_RT(s1,t9): Lshed(s1,t9) <= 54.33012702
 Max_load_shed_RT(s1,t10): Lshed(s1,t10) <= 53.53553391
 Max_load_shed_RT(s1,t11): Lshed(s1,t11) <= 52.5
 Max_load_shed_RT(s1,t12): Lshed(s1,t12) <= 51.29409523
 Max_load_shed_RT(s1,t13): Lshed(s1,t13) <= 50
 Max_load_shed_RT(s1,t14): Lshed(s1,t14) <= 48.70590477
 Max_load_shed_RT(s1,t15): Lshed(s1,t15) <= 47.5
 Max_load_shed_RT(s1,t16): Lshed(s1,t16) <= 46.46446609
 Max_load_shed_RT(s1,t17): Lshed(s1,t17) <= 45.66987298
 Max_load_shed_RT(s1,t18): Lshed(s1,t18) <= 45.17037087
 Max_load_shed_RT(s1,t19): Lshed(s1,t19) <= 45
 Max_load_shed_RT(s1,t20): Lshed(s1,t20) <= 45.17037087
 Max_load_shed_RT(s1,t21): Lshed(s1,t21) <= 45.66987298
 Max_load_shed_RT(s1,t22): Lshed(s1,t22) <= 46.46446609
 Max_load_shed_RT(s1,t23): Lshed(s1,t23) <= 47.5
 Max_load_shed_RT(s1,t24): Lshed(s1,t24) <= 48.70590477
 Max_load_shed_RT(s2,t1): Lshed(s2,t1) <= 50
 Max_load_shed_RT(s2,t2): Lshed(s2,t2) <= 51.29409523
 Max_load_shed_RT(s2,t3): Lshed(s2,t3) <= 52.5
 Max_load_shed_RT(s2,t4): Lshed(s2,t4) <= 53.53553391
 Max_load_shed_RT(s2,t5): Lshed(s2,t5) <= 54.33012702
 Max_load_shed_RT(s2,t6): Lshed(s2,t6) <= 54.82962913
 Max_load_shed_RT(s2,t7): Lshed(s2,t7) <= 55
 Max_load_shed_RT(s2,t8): Lshed(s2,t8) <= 54.82962913
 Max_load_shed_RT(s2,t9): Lshed(s2,t9) <= 54.33012702
 Max_load_shed_RT(s2,t10): Lshed(s2,t10) <= 53.53553391
 Max_load_shed_RT(s2,t11): Lshed(s2,t11) <= 52.5
 Max_load_shed_RT(s2,t12): Lshed(s2,t12) <= 51.29409523
 Max_load_shed_RT(s2,t13): Lshed(s2,t13) <= 50
 Max_load_shed_RT(s2,t14): Lshed(s2,t14) <= 48.70590477
 Max_load_shed_RT(s2,t15): Lshed(s2,t15) <= 47.5
 Max_load_shed_RT(s2,t16): Lshed(s2,t16) <= 46.46446609
 Max_load_shed_RT(s2,t17): Lshed(s2,t17) <= 45.66987298
 Max_load_shed_RT(s2,t18): Lshed(s2,t18) <= 45.17037087
 Max_load_shed_RT(s2,t19): Lshed(s2,t19) <= 45
 Max_load_shed_RT(s2,t20): Lshed(s2,t20) <= 45.17037087
 Max_load_shed_RT(s2,t21): Lshed(s2,t21) <= 45.66987298
 Max_load_shed_RT(s2,t22): Lshed(s2,t22) <= 46.46446609
 Max_load_shed_RT(s2,t23): Lshed(s2,t23) <= 47.5
 Max_load_shed_RT(s2,t24): Lshed(s2,t24) <= 48.70590477
 Max_wind_spill_RT(w1,s1,t1): Wspill(w1,s1,t1) <= 19.36152399
 Max_wind_spill_RT(w1,s1,t2): Wspill(w1,s1,t2) <= 19.80845052
 Max_wind_spill_RT(w1,s1,t3): Wspill(w1,s1,t3) <= 20.69868435
 Max_wind_spill_RT(w1,s1,t4): Wspill(w1,s1,t4) <= 19.77549921
 Max_wind_spill_RT(w1,s1,t5): Wspill(w1,s1,t5) <= 20.07510975
 Max_wind_spill_RT(w1,s1,t6): Wspill(w1,s1,t6) <= 18.16891905
 Max_wind_spill_RT(w1,s1,t7): Wspill(w1,s1,t7) <= 16.59465834
 Max_wind_spill_RT(w1,s1,t8): Wspill(w1,s1,t8) <= 13.34680944
 Max_wind_spill_RT(w1,s1,t9): Wspill(w1,s1,t9) <= 10.47638364
 Max_wind_spill_RT(w1,s1,t10): Wspill(w1,s1,t10) <= 7.749192330000001
 Max_wind_spill_RT(w1,s1,t11): Wspill(w1,s1,t11) <= 5.964156719999999
 Max_wind_spill_RT(w1,s1,t12): Wspill(w1,s1,t12) <= 5.33019351
 Max_wind_spill_RT(w1,s1,t13): Wspill(w1,s1,t13) <= 5.461870319999999
 Max_wind_spill_RT(w1,s1,t14): Wspill(w1,s1,t14) <= 7.004675819999999
 Max_wind_spill_RT(w1,s1,t15): Wspill(w1,s1,t15) <= 7.9620561
 Max_wind_spill_RT(w1,s1,t16): Wspill(w1,s1,t16) <= 7.71739128
 Max_wind_spill_RT(w1,s1,t17): Wspill(w1,s1,t17) <= 6.47265831
 Max_wind_spill_RT(w1,s1,t18): Wspill(w1,s1,t18) <= 6.07161237
 Max_wind_spill_RT(w1,s1,t19): Wspill(w1,s1,t19) <= 5.776513019999999
 Max_wind_spill_RT(w1,s1,t20): Wspill(w1,s1,t20) <= 5.435201999999999
 Max_wind_spill_RT(w1,s1,t21): Wspill(w1,s1,t21) <= 4.850395590000001
 Max_wind_spill_RT(w1,s1,t22): Wspill(w1,s1,t22) <= 4.4943279
 Max_wind_spill_RT(w1,s1,t23): Wspill(w1,s1,t23) <= 3.88346787
 Max_wind_spill_RT(w1,s1,t24): Wspill(w1,s1,t24) <= 2.50775121
 Max_wind_spill_RT(w1,s2,t1): Wspill(w1,s2,t1) <= 9.680762009999999
 Max_wind_spill_RT(w1,s2,t2): Wspill(w1,s2,t2) <= 9.904225260000001
 Max_wind_spill_RT(w1,s2,t3): Wspill(w1,s2,t3) <= 10.34934219
 Max_wind_spill_RT(w1,s2,t4): Wspill(w1,s2,t4) <= 9.887749620000001
 Max_wind_spill_RT(w1,s2,t5): Wspill(w1,s2,t5) <= 10.03755489
 Max_wind_spill_RT(w1,s2,t6): Wspill(w1,s2,t6) <= 9.084459539999999
 Max_wind_spill_RT(w1,s2,t7): Wspill(w1,s2,t7) <= 8.297329169999999
 Max_wind_spill_RT(w1,s2,t8): Wspill(w1,s2,t8) <= 6.67340472
 Max_wind_spill_RT(w1,s2,t9): Wspill(w1,s2,t9) <= 5.23819182
 Max_wind_spill_RT(w1,s2,t10): Wspill(w1,s2,t10) <= 3.87459618
 Max_wind_spill_RT(w1,s2,t11): Wspill(w1,s2,t11) <= 2.98207836
 Max_wind_spill_RT(w1,s2,t12): Wspill(w1,s2,t12) <= 2.66509677
 Max_wind_spill_RT(w1,s2,t13): Wspill(w1,s2,t13) <= 2.73093516
 Max_wind_spill_RT(w1,s2,t14): Wspill(w1,s2,t14) <= 3.50233791
 Max_wind_spill_RT(w1,s2,t15): Wspill(w1,s2,t15) <= 3.98102805
 Max_wind_spill_RT(w1,s2,t16): Wspill(w1,s2,t16) <= 3.85869564
 Max_wind_spill_RT(w1,s2,t17): Wspill(w1,s2,t17) <= 3.23632917
 Max_wind_spill_RT(w1,s2,t18): Wspill(w1,s2,t18) <= 3.0358062
 Max_wind_spill_RT(w1,s2,t19): Wspill(w1,s2,t19) <= 2.88825651
 Max_wind_spill_RT(w1,s2,t20): Wspill(w1,s2,t20) <= 2.717601
 Max_wind_spill_RT(w1,s2,t21): Wspill(w1,s2,t21) <= 2.42519781
 Max_wind_spill_RT(w1,s2,t22): Wspill(w1,s2,t22) <= 2.24716395
 Max_wind_spill_RT(w1,s2,t23): Wspill(w1,s2,t23) <= 1.94173395
 Max_wind_spill_RT(w1,s2,t24): Wspill(w1,s2,t24) <= 1.25387562
Bounds
End
